; benchmark generated from python API
(set-info :status unknown)
(declare-datatypes ((RealState 0)) (((RMk1 (rval1 Real)) (RMk2 (rval2 Real)))))
 (assert
 (exists ((|v11:0_st| RealState) (val!6356 Real) )(exists ((|v10:1_st| RealState) (val!6357 Real) )(exists ((|v9:2_st| RealState) (val!6358 Real) )(exists ((|v8:3_st| RealState) (val!6359 Real) )(forall ((|v7:4| Real) )(forall ((|v6:5| Real) )(forall ((|v5:6| Real) )(forall ((|v4:7| Real) )(exists ((|v3:8_st| RealState) (val!6360 Real) )(exists ((|v2:9_st| RealState) (val!6361 Real) )(exists ((|v1:10_st| RealState) (val!6362 Real) )(exists ((|v0:11_st| RealState) (val!6363 Real) )(let ((?x496 (- 19.0)))
 (let ((?x2946 (- 12.0)))
 (let ((?x1912 (* ?x2946 |v7:4|)))
 (let ((?x1862 (+ (+ (+ (* 16.0 (rval2 |v10:1_st|)) (* 17.0 (rval2 |v11:0_st|))) ?x1912) (* (- 17.0) |v7:4|))))
 (let ((?x2329 (* 16.0 |v6:5|)))
 (let ((?x2060 (+ (+ (+ (* 17.0 |v4:7|) (* (- 9.0) |v7:4|)) (* 9.0 (rval2 |v8:3_st|))) ?x2329)))
 (let ((?x3044 (- 20.0)))
 (let ((?x273 (rval2 |v2:9_st|)))
 (let ((?x3452 (* 12.0 ?x273)))
 (let ((?x2072 (- 14.0)))
 (let ((?x1836 (* ?x2072 |v5:6|)))
 (let (($x893 (<= (+ (+ (+ (* ?x2072 |v7:4|) (* 4.0 (rval2 |v8:3_st|))) ?x1836) ?x3452) ?x3044)))
 (let ((?x1633 (- 7.0)))
 (let ((?x1477 (- 5.0)))
 (let ((?x1872 (* ?x1477 |v6:5|)))
 (let ((?x2584 (* ?x1477 |v5:6|)))
 (let ((?x519 (+ (+ (+ (* 17.0 (rval2 |v8:3_st|)) (* 6.0 (rval2 |v10:1_st|))) ?x2584) ?x1872)))
 (let (($x2043 (and (and (<= ?x519 ?x1633) $x893) (and (<= ?x2060 9.0) (<= ?x1862 ?x496)))))
 (let ((?x3071 (rval2 |v8:3_st|)))
 (let ((?x2206 (* 0.0 ?x3071)))
 (let ((?x3138 (rval2 |v1:10_st|)))
 (let ((?x2652 (* 14.0 ?x3138)))
 (let ((?x2746 (+ (+ (+ (* 6.0 (rval2 |v0:11_st|)) (* (- 10.0) (rval2 |v3:8_st|))) ?x2652) ?x2206)))
 (let ((?x3147 (rval2 |v9:2_st|)))
 (let ((?x2984 (* ?x1633 ?x3147)))
 (let ((?x333 (+ (+ (* ?x2072 ?x3138) (* (- 16.0) (rval2 |v3:8_st|))) (* (- 16.0) (rval2 |v0:11_st|)))))
 (let ((?x599 (- 6.0)))
 (let ((?x1005 (* 2.0 ?x3138)))
 (let ((?x2175 (+ (+ (+ (* ?x599 (rval2 |v10:1_st|)) (* 7.0 ?x273)) (* ?x2946 (rval2 |v0:11_st|))) ?x1005)))
 (let ((?x2096 (- 10.0)))
 (let ((?x67 (* ?x2096 ?x3138)))
 (let ((?x1196 (* 14.0 ?x3147)))
 (let ((?x2190 (+ (+ (+ (* 0.0 (rval2 |v11:0_st|)) (* 11.0 (rval2 |v11:0_st|))) ?x1196) ?x67)))
 (let (($x2735 (and (and (<= ?x2190 7.0) (<= ?x2175 ?x599)) (and (<= (+ ?x333 ?x2984) ?x496) (<= ?x2746 ?x2072)))))
 (let ((?x961 (- 2.0)))
 (let ((?x71 (- 9.0)))
 (let ((?x970 (* ?x71 ?x273)))
 (let ((?x2616 (+ (+ (+ (* 19.0 ?x3147) (* 3.0 |v6:5|)) (* 9.0 (rval2 |v0:11_st|))) ?x970)))
 (let ((?x2974 (* 6.0 |v4:7|)))
 (let ((?x1438 (+ (+ (+ (* ?x3044 (rval2 |v11:0_st|)) (* 3.0 ?x273)) (* (- 18.0) |v5:6|)) ?x2974)))
 (let ((?x696 (* ?x71 ?x3147)))
 (let ((?x2549 (+ (+ (+ (* 12.0 |v6:5|) (* (- 8.0) (rval2 |v10:1_st|))) (* 10.0 |v4:7|)) ?x696)))
 (let ((?x666 (* 13.0 |v7:4|)))
 (let ((?x2465 (+ (+ (+ (* (- 1.0) ?x3138) (* (- 1.0) (rval2 |v0:11_st|))) ?x666) (* (- 3.0) (rval2 |v11:0_st|)))))
 (let (($x473 (and (and (<= ?x2465 ?x2946) (<= ?x2549 ?x1477)) (and (<= ?x1438 ?x3044) (<= ?x2616 ?x961)))))
 (let (($x146 (<= (+ (+ (+ (* ?x2096 |v5:6|) (* 7.0 |v7:4|)) (* ?x1633 ?x3071)) ?x696) 15.0)))
 (let ((?x2716 (* 5.0 |v7:4|)))
 (let ((?x3341 (+ (+ (* ?x2096 (rval2 |v3:8_st|)) (* (- 15.0) ?x3138)) (* (- 4.0) |v6:5|))))
 (let ((?x1319 (- 13.0)))
 (let ((?x721 (rval2 |v0:11_st|)))
 (let ((?x1415 (- 15.0)))
 (let ((?x274 (* ?x1415 ?x721)))
 (let ((?x2950 (+ (+ (+ (* (- 18.0) ?x3138) (* 11.0 |v6:5|)) (* 20.0 (rval2 |v10:1_st|))) ?x274)))
 (let ((?x1642 (- 18.0)))
 (let ((?x2314 (+ (+ (+ (* 9.0 ?x3147) (* (- 8.0) |v6:5|)) (* (- 4.0) |v5:6|)) (* (- 17.0) ?x3138))))
 (let (($x3370 (and (or (<= ?x2314 ?x1642) (<= ?x2950 ?x1319)) (and (<= (+ ?x3341 ?x2716) 10.0) $x146))))
 (let ((?x1230 (* 12.0 |v7:4|)))
 (let (($x2215 (<= (+ (+ (+ (* ?x2096 |v7:4|) (* 20.0 ?x721)) (* ?x961 |v7:4|)) ?x1230) 8.0)))
 (let (($x1741 (<= (+ (+ (+ (* (- 17.0) ?x3147) |v5:6|) (* 12.0 |v6:5|)) (* ?x1415 |v4:7|)) 6.0)))
 (let ((?x864 (* 14.0 ?x273)))
 (let (($x3427 (<= (+ (+ (+ (* 3.0 ?x3071) (* 9.0 ?x3138)) (* 6.0 ?x3071)) ?x864) ?x1477)))
 (let ((?x2494 (* 10.0 |v6:5|)))
 (let ((?x3223 (+ (+ (+ (* ?x2946 |v5:6|) (* 6.0 ?x3071)) (* 5.0 (rval2 |v3:8_st|))) ?x2494)))
 (let (($x3233 (<= (+ (+ (+ (* ?x599 ?x3071) ?x970) (* ?x71 |v4:7|)) (* 12.0 |v5:6|)) 19.0)))
 (let (($x271 (<= (+ (+ (+ (* ?x1319 ?x3138) (* 15.0 |v6:5|)) ?x1912) (* ?x1633 |v4:7|)) 13.0)))
 (let ((?x2648 (- 8.0)))
 (let ((?x1771 (* 20.0 ?x3071)))
 (let ((?x3012 (+ (+ (+ (* 16.0 (rval2 |v3:8_st|)) (* ?x1633 (rval2 |v11:0_st|))) ?x1771) (* 12.0 ?x3071))))
 (let ((?x2387 (- 1.0)))
 (let ((?x1332 (* ?x2387 |v6:5|)))
 (let ((?x2980 (+ (+ (+ (* (- 16.0) ?x3138) (* 9.0 (rval2 |v3:8_st|))) (* 14.0 ?x3071)) ?x1332)))
 (let (($x3298 (and (and (and (<= ?x2980 ?x599) (<= ?x3012 ?x2648)) (and $x271 $x3233)) (and (and (<= ?x3223 ?x1477) $x3427) (and $x1741 $x2215)))))
 (let ((?x260 (+ (+ (+ (* ?x1642 (rval2 |v11:0_st|)) (* 12.0 (rval2 |v10:1_st|))) (* ?x1319 ?x3071)) ?x2584)))
 (let ((?x2029 (* 7.0 ?x721)))
 (let ((?x656 (+ (+ (+ (* 4.0 (rval2 |v11:0_st|)) (* ?x2946 ?x3138)) (* 14.0 |v7:4|)) ?x2029)))
 (let (($x1720 (<= (+ (+ (+ (* ?x2387 |v5:6|) ?x2494) (* 19.0 |v6:5|)) (* 18.0 |v6:5|)) ?x1319)))
 (let (($x978 (<= (+ (+ (+ ?x2206 ?x1005) (* ?x1633 |v7:4|)) (* 7.0 (rval2 |v11:0_st|))) 9.0)))
 (let ((?x1451 (+ (+ (+ (* ?x2946 ?x3071) (* ?x961 |v4:7|)) (* 20.0 (rval2 |v3:8_st|))) (* 7.0 ?x3071))))
 (let ((?x2397 (rval2 |v3:8_st|)))
 (let ((?x3251 (+ (+ (+ (* ?x599 (rval2 |v11:0_st|)) (* 0.0 |v7:4|)) (* ?x2387 ?x3071)) ?x2397)))
 (let ((?x90 (+ (+ (+ (* ?x599 (rval2 |v11:0_st|)) (* ?x496 (rval2 |v10:1_st|))) (* ?x1415 ?x3071)) (* ?x1477 ?x3071))))
 (let ((?x461 (* 17.0 ?x3147)))
 (let ((?x976 (+ (+ (* 0.0 ?x3138) (* ?x2387 (rval2 |v10:1_st|))) (* 5.0 (rval2 |v10:1_st|)))))
 (let (($x1454 (and (and (<= (+ ?x976 ?x461) ?x1415) (<= ?x90 18.0)) (and (<= ?x3251 1.0) (<= ?x1451 2.0)))))
 (let (($x2837 (and $x1454 (and (and $x978 $x1720) (and (<= ?x656 11.0) (<= ?x260 7.0))))))
 (let ((?x3344 (+ (+ (+ (* (- 3.0) |v7:4|) (* 3.0 (rval2 |v11:0_st|))) (* 11.0 |v5:6|)) ?x2397)))
 (let (($x3106 (and (<= ?x3344 ?x1642) (<= (+ (+ (+ (* 8.0 |v5:6|) ?x2716) (* 10.0 ?x3147)) ?x273) 15.0))))
 (let ((?x3493 (+ (+ (+ (* ?x961 |v5:6|) ?x1872) (* 10.0 |v7:4|)) (* ?x71 (rval2 |v10:1_st|)))))
 (let (($x1874 (<= (+ (+ (+ (* (- 16.0) ?x3071) (* 17.0 |v5:6|)) (* ?x1633 ?x273)) ?x274) ?x2946)))
 (let ((?x2808 (* 4.0 |v5:6|)))
 (let ((?x744 (+ (+ (+ (* 12.0 (rval2 |v10:1_st|)) (* ?x2072 (rval2 |v10:1_st|))) (* ?x2946 ?x2397)) ?x2808)))
 (let ((?x1928 (+ (+ (+ (* ?x2648 |v6:5|) (* ?x2946 ?x2397)) (* 5.0 |v6:5|)) (* ?x2648 ?x3071))))
 (let ((?x1716 (+ (+ (+ (* 12.0 ?x2397) (* ?x1477 ?x273)) (* 0.0 ?x2397)) (* 18.0 ?x2397))))
 (let ((?x2250 (rval2 |v10:1_st|)))
 (let ((?x3043 (* 11.0 ?x2250)))
 (let (($x363 (<= (+ (+ (+ ?x2584 (* (- 11.0) (rval2 |v11:0_st|))) (* ?x599 ?x2397)) ?x3043) ?x1642)))
 (let (($x955 (and (and $x363 (<= ?x1716 3.0)) (and (<= ?x1928 ?x1415) (<= ?x744 2.0)))))
 (let ((?x2507 (+ (+ (+ (* 19.0 |v5:6|) (* (- 17.0) |v6:5|)) (* ?x2946 ?x721)) (* 17.0 ?x721))))
 (let ((?x2503 (- 3.0)))
 (let ((?x643 (+ (+ (+ (* ?x2072 ?x2397) (* 12.0 ?x3138)) (* 18.0 (rval2 |v11:0_st|))) (* 2.0 ?x2397))))
 (let ((?x503 (+ (+ (+ (* 15.0 (rval2 |v11:0_st|)) (* 0.0 ?x721)) (* 4.0 ?x2250)) (* ?x1642 |v4:7|))))
 (let ((?x1774 (- 11.0)))
 (let (($x3377 (<= (+ (+ (+ (* ?x2096 ?x2250) (* ?x2946 ?x721)) ?x1332) (* ?x2096 (rval2 |v11:0_st|))) ?x1774)))
 (let (($x1745 (and (and $x3377 (<= ?x503 2.0)) (and (<= ?x643 ?x2503) (<= ?x2507 19.0)))))
 (let ((?x2187 (+ (+ (+ (* 15.0 ?x3147) ?x3147) (* ?x2648 (rval2 |v11:0_st|))) (* ?x496 |v7:4|))))
 (let ((?x2433 (+ (+ (+ (* (- 4.0) |v5:6|) (* 0.0 (rval2 |v11:0_st|))) (* ?x1477 |v7:4|)) (* ?x1774 |v6:5|))))
 (let ((?x1276 (+ (+ (+ (* (- 16.0) ?x3071) (* 0.0 |v7:4|)) (* ?x2072 ?x3147)) (* ?x2503 ?x3138))))
 (let ((?x2599 (+ (+ (+ ?x2584 (* (- 4.0) ?x3147)) (* ?x1319 |v5:6|)) (* (- 16.0) |v7:4|))))
 (let (($x2295 (and (and (<= ?x2599 17.0) (<= ?x1276 ?x1415)) (and (<= ?x2433 14.0) (<= ?x2187 9.0)))))
 (let (($x2098 (and (and $x2295 $x1745) (and $x955 (and (and $x1874 (<= ?x3493 ?x496)) $x3106)))))
 (let ((?x1609 (* 3.0 ?x721)))
 (let (($x1827 (<= (+ (+ (+ (* 15.0 ?x3138) (* 12.0 |v6:5|)) (* 17.0 |v4:7|)) ?x1609) ?x599)))
 (let (($x1162 (<= (+ (+ (+ (rval2 |v11:0_st|) ?x67) (* 8.0 ?x3147)) (* 10.0 ?x273)) 13.0)))
 (let ((?x512 (+ (+ (+ (* 12.0 ?x2250) (* ?x1774 ?x3147)) (* ?x1477 ?x2250)) (* ?x2946 ?x3147))))
 (let (($x2740 (<= (+ (+ (+ (* (- 16.0) ?x3138) (* 8.0 ?x3138)) (* ?x599 |v5:6|)) ?x2206) 12.0)))
 (let ((?x2154 (* 17.0 ?x3138)))
 (let (($x1281 (<= (+ (+ (+ (* 11.0 |v6:5|) (* 13.0 ?x2397)) (* ?x2096 |v5:6|)) ?x2154) 18.0)))
 (let (($x840 (<= (+ (+ (+ (* 7.0 ?x2250) (* 19.0 ?x273)) ?x3147) (* ?x3044 ?x721)) 7.0)))
 (let ((?x2572 (- 4.0)))
 (let ((?x899 (+ (+ (+ (* 12.0 ?x3138) (* 17.0 ?x2250)) (* 6.0 |v6:5|)) (* (- 16.0) ?x3147))))
 (let (($x2865 (and (<= (+ (+ (+ (* 15.0 |v4:7|) ?x2984) (* ?x1633 ?x3138)) |v6:5|) 9.0) (<= ?x899 ?x2572))))
 (let (($x2600 (and (and $x2865 (or $x840 $x1281)) (and (and $x2740 (<= ?x512 3.0)) (and $x1162 $x1827)))))
 (let ((?x2749 (- 17.0)))
 (let ((?x1018 (+ (+ (+ (* 14.0 |v5:6|) (* 2.0 (rval2 |v11:0_st|))) (* 10.0 |v5:6|)) (* ?x1633 ?x2250))))
 (let (($x509 (and (<= ?x1018 ?x2572) (<= (+ (+ (+ (* 14.0 |v6:5|) |v6:5|) ?x1872) (* ?x1319 ?x721)) ?x2749))))
 (let ((?x495 (* 0.0 |v7:4|)))
 (let (($x1235 (<= (+ (+ (+ (* ?x1642 ?x2250) (* ?x2572 ?x3138)) (* 10.0 |v5:6|)) ?x495) ?x1633)))
 (let ((?x1524 (+ (+ (+ (* 20.0 ?x2397) (* ?x2946 |v5:6|)) (* 6.0 (rval2 |v11:0_st|))) ?x3043)))
 (let ((?x1026 (* 16.0 ?x273)))
 (let ((?x806 (+ (+ (+ (* ?x1319 ?x2397) (* ?x2096 |v5:6|)) (* 2.0 ?x3071)) (* ?x1319 |v7:4|))))
 (let (($x3115 (and (<= ?x806 16.0) (<= (+ (+ (+ (* 20.0 ?x2250) (* ?x2749 ?x3147)) ?x1026) ?x1026) 18.0))))
 (let (($x204 (<= (+ (+ (+ ?x2984 (* ?x2572 |v4:7|)) (* 20.0 |v6:5|)) (* ?x1774 ?x273)) 6.0)))
 (let ((?x2985 (* 12.0 ?x2250)))
 (let ((?x2918 (+ (+ (+ (* 19.0 (rval2 |v11:0_st|)) (* 16.0 |v5:6|)) (* (- 16.0) ?x2397)) ?x2985)))
 (let (($x463 (and (or (and (<= ?x2918 19.0) $x204) $x3115) (and (and (<= ?x1524 2.0) $x1235) $x509))))
 (let (($x3348 (and (and (and $x463 $x2600) $x2098) (and (and $x2837 $x3298) (and (and $x3370 $x473) (and $x2735 $x2043))))))
 (let (($x1161 (not (= |v0:11_st| (RMk1 val!6363)))))
 (let (($x1272 (not (= |v1:10_st| (RMk1 val!6362)))))
 (let (($x1346 (not (= |v2:9_st| (RMk1 val!6361)))))
 (let (($x2005 (not (= |v3:8_st| (RMk1 val!6360)))))
 (let (($x1367 (not (= |v8:3_st| (RMk1 val!6359)))))
 (let (($x3058 (not (= |v9:2_st| (RMk1 val!6358)))))
 (let (($x1294 (not (= |v10:1_st| (RMk1 val!6357)))))
 (let (($x2915 (not (= |v11:0_st| (RMk1 val!6356)))))
 (and $x2915 $x1294 $x3058 $x1367 $x2005 $x1346 $x1272 $x1161 $x3348))))))))))))))))))))))))))))))))))))))))))))))))))))))))))))))))))))))))))))))))))))))))))))))))))))))))))))))))))))))))))))))))))))))))))))))))))
 )
 )
 )
 )
 )
 )
 )
 )
 )
 )
 )
 )
(check-sat)
